* ENCODING=ISO-8859-1
NAME          CPLEX
ROWS
 N  obj1    
 G  c1      
 G  c2      
 G  c3      
 G  c4      
 G  c5      
 G  c6      
 G  c7      
 G  c8      
 G  c9      
 G  c10     
 G  c11     
 G  c12     
 G  c13     
 G  c14     
 G  c15     
 G  c16     
 G  c17     
 G  c18     
 G  c19     
 G  c20     
 G  c21     
 G  c22     
 G  c23     
 G  c24     
 G  c25     
 G  c26     
 G  c27     
 G  c28     
 G  c29     
 G  c30     
COLUMNS
    MARK0000  'MARKER'                 'INTORG'
    x1        obj1                            1
    x1        c1                            829
    x1        c2                            945
    x1        c23                           165
    x2        obj1                            1
    x2        c19                           615
    x2        c29                           405
    x3        obj1                            1
    x3        c1                            915
    x3        c3                            893
    x3        c18                           922
    x4        obj1                            1
    x4        c30                           412
    x5        obj1                            1
    x5        c1                            750
    x5        c11                           548
    x5        c18                           414
    x5        c28                           659
    x5        c30                           120
    x6        obj1                            1
    x6        c1                            712
    x6        c11                           460
    x6        c21                           888
    x7        obj1                            1
    x7        c20                           217
    x7        c25                           627
    x7        c26                           930
    x8        obj1                            1
    x8        c1                            999
    x8        c3                            570
    x8        c8                            888
    x8        c9                            800
    x8        c13                           155
    x8        c15                           687
    x9        obj1                            1
    x9        c11                           904
    x9        c15                           870
    x9        c16                           434
    x9        c18                           594
    x9        c29                           317
    x10       obj1                            1
    x10       c4                            856
    x10       c19                           282
    x10       c28                           235
    x11       obj1                            1
    x11       c2                            659
    x11       c4                            193
    x12       obj1                            1
    x12       c9                            306
    x12       c13                           917
    x12       c22                           109
    x13       obj1                            1
    x13       c12                           912
    x13       c19                           587
    x13       c26                           314
    x13       c29                           123
    x14       obj1                            1
    x14       c13                           545
    x14       c25                           859
    x14       c30                           716
    x15       obj1                            1
    x15       c3                            670
    x15       c21                           538
    x15       c24                           496
    x16       obj1                            1
    x16       c27                           732
    x17       obj1                            1
    x17       c8                            780
    x18       obj1                            1
    x18       c6                            323
    x18       c8                            707
    x18       c14                           985
    x18       c26                           444
    x18       c27                           825
    x19       obj1                            1
    x19       c2                            997
    x19       c9                            603
    x20       obj1                            1
    x20       c10                           606
    x20       c22                           663
    x21       obj1                            1
    x21       c7                            647
    x21       c11                           475
    x21       c18                           310
    x21       c28                           879
    x22       obj1                            1
    x22       c17                           165
    x23       obj1                            1
    x23       c4                            548
    x23       c17                           239
    x23       c19                           140
    x23       c22                           751
    x24       obj1                            1
    x24       c3                            694
    x24       c11                           640
    x24       c12                           519
    x24       c22                           179
    x24       c24                           781
    x25       obj1                            1
    x25       c10                           825
    x25       c28                           147
    x26       obj1                            1
    x26       c13                           510
    x26       c19                           957
    x26       c21                           265
    x27       obj1                            1
    x27       c8                            210
    x27       c11                           117
    x27       c14                           645
    x28       obj1                            1
    x28       c13                           612
    x28       c15                           464
    x28       c21                           379
    x29       obj1                            1
    x29       c24                           150
    x29       c26                           837
    x29       c28                           497
    x30       obj1                            1
    x30       c5                            117
    x30       c17                           187
    x31       obj1                            1
    x31       c10                           922
    x31       c23                           980
    x32       obj1                            1
    x32       c4                            696
    x32       c17                           469
    x33       obj1                            1
    x33       c9                            759
    x33       c13                           298
    x33       c19                           205
    x33       c21                           785
    x34       obj1                            1
    x34       c7                            305
    x34       c19                           843
    x34       c24                           744
    x34       c26                           641
    x34       c29                           627
    x35       obj1                            1
    x35       c19                           433
    x36       obj1                            1
    x36       c14                           860
    x36       c26                           778
    x37       obj1                            1
    x37       c3                            425
    x37       c16                           784
    x37       c22                           455
    x37       c23                           255
    x37       c27                           896
    x38       obj1                            1
    x38       c5                            658
    x38       c9                            189
    x38       c20                           588
    x38       c29                           313
    x39       obj1                            1
    x39       c13                           685
    x39       c30                           555
    x40       obj1                            1
    x40       c2                            573
    x41       obj1                            1
    x41       c7                            333
    x41       c28                           313
    x42       obj1                            1
    x42       c3                            695
    x43       obj1                            1
    x44       obj1                            1
    x44       c10                           282
    x45       obj1                            1
    x45       c2                            420
    x45       c9                            788
    x45       c22                           207
    x45       c28                           761
    x46       obj1                            1
    x46       c2                            535
    x46       c20                           401
    x46       c21                           462
    x46       c22                           674
    x47       obj1                            1
    x47       c6                            604
    x47       c8                            545
    x47       c22                           195
    x47       c23                           181
    x47       c30                           492
    x48       obj1                            1
    x48       c1                            583
    x48       c23                           751
    x48       c25                           341
    x48       c28                           726
    x49       obj1                            1
    x49       c26                           882
    x49       c27                           223
    x50       obj1                            1
    x50       c16                           572
    x51       obj1                            1
    x51       c15                           540
    x51       c18                           917
    x51       c23                           983
    x51       c30                           316
    x52       obj1                            1
    x53       obj1                            1
    x53       c3                            635
    x53       c9                            199
    x54       obj1                            1
    x54       c3                            106
    x54       c4                            570
    x54       c5                            877
    x54       c6                            388
    x54       c11                           141
    x54       c24                           207
    x55       obj1                            1
    x55       c1                            923
    x55       c17                           457
    x56       obj1                            1
    x56       c25                           295
    x57       obj1                            1
    x57       c8                            850
    x57       c30                           737
    x58       obj1                            1
    x58       c3                            964
    x58       c26                           278
    x59       obj1                            1
    x59       c11                           851
    x59       c12                           372
    x60       obj1                            1
    x60       c17                           384
    x60       c22                           935
    x60       c23                           760
    MARK0001  'MARKER'                 'INTEND'
RHS
    rhs       c1                           2856
    rhs       c2                           2065
    rhs       c3                           2826
    rhs       c4                           1432
    rhs       c5                            826
    rhs       c6                            658
    rhs       c7                            643
    rhs       c8                           1990
    rhs       c9                           1822
    rhs       c10                          1318
    rhs       c11                          2068
    rhs       c12                           902
    rhs       c13                          1861
    rhs       c14                          1245
    rhs       c15                          1281
    rhs       c16                           895
    rhs       c17                           951
    rhs       c18                          1579
    rhs       c19                          2031
    rhs       c20                           603
    rhs       c21                          1659
    rhs       c22                          2084
    rhs       c23                          2038
    rhs       c24                          1189
    rhs       c25                          1061
    rhs       c26                          2552
    rhs       c27                          1338
    rhs       c28                          2109
    rhs       c29                           893
    rhs       c30                          1674
BOUNDS
 LI bnd       x1        0
 LI bnd       x2        0
 LI bnd       x3        0
 LI bnd       x4        0
 LI bnd       x5        0
 LI bnd       x6        0
 LI bnd       x7        0
 LI bnd       x8        0
 LI bnd       x9        0
 LI bnd       x10       0
 LI bnd       x11       0
 LI bnd       x12       0
 LI bnd       x13       0
 LI bnd       x14       0
 LI bnd       x15       0
 LI bnd       x16       0
 LI bnd       x17       0
 LI bnd       x18       0
 LI bnd       x19       0
 LI bnd       x20       0
 LI bnd       x21       0
 LI bnd       x22       0
 LI bnd       x23       0
 LI bnd       x24       0
 LI bnd       x25       0
 LI bnd       x26       0
 LI bnd       x27       0
 LI bnd       x28       0
 LI bnd       x29       0
 LI bnd       x30       0
 LI bnd       x31       0
 LI bnd       x32       0
 LI bnd       x33       0
 LI bnd       x34       0
 LI bnd       x35       0
 LI bnd       x36       0
 LI bnd       x37       0
 LI bnd       x38       0
 LI bnd       x39       0
 LI bnd       x40       0
 LI bnd       x41       0
 LI bnd       x42       0
 LI bnd       x43       0
 LI bnd       x44       0
 LI bnd       x45       0
 LI bnd       x46       0
 LI bnd       x47       0
 LI bnd       x48       0
 LI bnd       x49       0
 LI bnd       x50       0
 LI bnd       x51       0
 LI bnd       x52       0
 LI bnd       x53       0
 LI bnd       x54       0
 LI bnd       x55       0
 LI bnd       x56       0
 LI bnd       x57       0
 LI bnd       x58       0
 LI bnd       x59       0
 LI bnd       x60       0
ENDATA
